\ENCODING=ISO-8859-1
\Problem name: 

Minimize
 obj: 19.0240085155574 X_0_0 + 33.9522797467269 X_0_1 + 30.0124445664797 X_0_2
      + 4.2666260693486 X_0_3 + 28.7662920980816 X_0_4 + 36.2217137545822 X_0_5
      + 18.4388744048796 X_0_6 + 20.4989999756086 X_1_0
      + 54.4428654646318 X_1_1 + 60.5380024657969 X_1_2
      + 36.3243098078257 X_1_3 + 21.6075047941703 X_1_4
      + 19.4520022161075 X_1_5 + 41.0512280439309 X_1_6
      + 19.2886961715923 X_2_0 + 50.0646701776812 X_2_1
      + 49.0025234026035 X_2_2 + 16.3499966297286 X_2_3
      + 9.56185472561467 X_2_4 + 34.4233884831484 X_2_5
      + 33.8583889056941 X_2_6 + 6.10450653206302 X_3_0
      + 33.8285678088801 X_3_1 + 41.0167085302257 X_3_2
      + 25.9575821813861 X_3_3 + 29.624429046018 X_3_4 + 12.1815968531731 X_3_5
      + 21.1871367190796 X_3_6 + 29.882290742177 X_4_0 + 6.95385504594394 X_4_1
      + 21.5380210101162 X_4_2 + 35.9630697422632 X_4_3
      + 53.6970995991954 X_4_4 + 33.2632317087063 X_4_5
      + 13.3224815088418 X_4_6 + 40.0426897198477 X_5_0
      + 22.5842865727479 X_5_1 + 39.1245362312841 X_5_2
      + 52.2776199560529 X_5_3 + 64.7511161041417 X_5_4
      + 34.1629220934939 X_5_5 + 30.765687657635 X_5_6 + 57.1143417527181 X_6_0
      + 26.182426480965 X_6_1 + 17.6998566494083 X_6_2 + 51.2084850380277 X_6_3
      + 76.0150811268547 X_6_4 + 65.5096264318504 X_6_5
      + 36.4028547527324 X_6_6 + 32.9788768595763 X_7_0 + 23.532794309113 X_7_1
      + 12.2119328254575 X_7_2 + 22.3290113216722 X_7_3
      + 47.7820189153083 X_7_4 + 46.7057462079247 X_7_5
      + 16.6749499078413 X_7_6 + 254.65309689304 Z_0 + 224.415732632874 Z_1
      + 237.947088047276 Z_2 + 261.99044735834 Z_3 + 279.191534465647 Z_4
      + 252.159181773968 Z_5 + 239.366373911251 Z_6
Subject To
 c1:  X_0_0 + X_0_1 + X_0_2 + X_0_3 + X_0_4 + X_0_5 + X_0_6  = 1
 c2:  X_1_0 + X_1_1 + X_1_2 + X_1_3 + X_1_4 + X_1_5 + X_1_6  = 1
 c3:  X_2_0 + X_2_1 + X_2_2 + X_2_3 + X_2_4 + X_2_5 + X_2_6  = 1
 c4:  X_3_0 + X_3_1 + X_3_2 + X_3_3 + X_3_4 + X_3_5 + X_3_6  = 1
 c5:  X_4_0 + X_4_1 + X_4_2 + X_4_3 + X_4_4 + X_4_5 + X_4_6  = 1
 c6:  X_5_0 + X_5_1 + X_5_2 + X_5_3 + X_5_4 + X_5_5 + X_5_6  = 1
 c7:  X_6_0 + X_6_1 + X_6_2 + X_6_3 + X_6_4 + X_6_5 + X_6_6  = 1
 c8:  X_7_0 + X_7_1 + X_7_2 + X_7_3 + X_7_4 + X_7_5 + X_7_6  = 1
 c9:  150 X_0_0 + 200 X_1_0 + 200 X_2_0 + 175 X_3_0 + 200 X_4_0 + 200 X_5_0
      + 180 X_6_0 + 135 X_7_0 - 800 Z_0 <= 0
 c10: 150 X_0_1 + 200 X_1_1 + 200 X_2_1 + 175 X_3_1 + 200 X_4_1 + 200 X_5_1
      + 180 X_6_1 + 135 X_7_1 - 800 Z_1 <= 0
 c11: 150 X_0_2 + 200 X_1_2 + 200 X_2_2 + 175 X_3_2 + 200 X_4_2 + 200 X_5_2
      + 180 X_6_2 + 135 X_7_2 - 800 Z_2 <= 0
 c12: 150 X_0_3 + 200 X_1_3 + 200 X_2_3 + 175 X_3_3 + 200 X_4_3 + 200 X_5_3
      + 180 X_6_3 + 135 X_7_3 - 800 Z_3 <= 0
 c13: 150 X_0_4 + 200 X_1_4 + 200 X_2_4 + 175 X_3_4 + 200 X_4_4 + 200 X_5_4
      + 180 X_6_4 + 135 X_7_4 - 800 Z_4 <= 0
 c14: 150 X_0_5 + 200 X_1_5 + 200 X_2_5 + 175 X_3_5 + 200 X_4_5 + 200 X_5_5
      + 180 X_6_5 + 135 X_7_5 - 800 Z_5 <= 0
 c15: 150 X_0_6 + 200 X_1_6 + 200 X_2_6 + 175 X_3_6 + 200 X_4_6 + 200 X_5_6
      + 180 X_6_6 + 135 X_7_6 - 800 Z_6 <= 0
Bounds
 0 <= X_0_0 <= 1
 0 <= X_0_1 <= 1
 0 <= X_0_2 <= 1
 0 <= X_0_3 <= 1
 0 <= X_0_4 <= 1
 0 <= X_0_5 <= 1
 0 <= X_0_6 <= 1
 0 <= X_1_0 <= 1
 0 <= X_1_1 <= 1
 0 <= X_1_2 <= 1
 0 <= X_1_3 <= 1
 0 <= X_1_4 <= 1
 0 <= X_1_5 <= 1
 0 <= X_1_6 <= 1
 0 <= X_2_0 <= 1
 0 <= X_2_1 <= 1
 0 <= X_2_2 <= 1
 0 <= X_2_3 <= 1
 0 <= X_2_4 <= 1
 0 <= X_2_5 <= 1
 0 <= X_2_6 <= 1
 0 <= X_3_0 <= 1
 0 <= X_3_1 <= 1
 0 <= X_3_2 <= 1
 0 <= X_3_3 <= 1
 0 <= X_3_4 <= 1
 0 <= X_3_5 <= 1
 0 <= X_3_6 <= 1
 0 <= X_4_0 <= 1
 0 <= X_4_1 <= 1
 0 <= X_4_2 <= 1
 0 <= X_4_3 <= 1
 0 <= X_4_4 <= 1
 0 <= X_4_5 <= 1
 0 <= X_4_6 <= 1
 0 <= X_5_0 <= 1
 0 <= X_5_1 <= 1
 0 <= X_5_2 <= 1
 0 <= X_5_3 <= 1
 0 <= X_5_4 <= 1
 0 <= X_5_5 <= 1
 0 <= X_5_6 <= 1
 0 <= X_6_0 <= 1
 0 <= X_6_1 <= 1
 0 <= X_6_2 <= 1
 0 <= X_6_3 <= 1
 0 <= X_6_4 <= 1
 0 <= X_6_5 <= 1
 0 <= X_6_6 <= 1
 0 <= X_7_0 <= 1
 0 <= X_7_1 <= 1
 0 <= X_7_2 <= 1
 0 <= X_7_3 <= 1
 0 <= X_7_4 <= 1
 0 <= X_7_5 <= 1
 0 <= X_7_6 <= 1
 0 <= Z_0 <= 1
 0 <= Z_1 <= 1
 0 <= Z_2 <= 1
 0 <= Z_3 <= 1
 0 <= Z_4 <= 1
 0 <= Z_5 <= 1
 0 <= Z_6 <= 1
Generals
 X_0_0  X_0_1  X_0_2  X_0_3  X_0_4  X_0_5  X_0_6  X_1_0  X_1_1  X_1_2  X_1_3 
 X_1_4  X_1_5  X_1_6  X_2_0  X_2_1  X_2_2  X_2_3  X_2_4  X_2_5  X_2_6  X_3_0 
 X_3_1  X_3_2  X_3_3  X_3_4  X_3_5  X_3_6  X_4_0  X_4_1  X_4_2  X_4_3  X_4_4 
 X_4_5  X_4_6  X_5_0  X_5_1  X_5_2  X_5_3  X_5_4  X_5_5  X_5_6  X_6_0  X_6_1 
 X_6_2  X_6_3  X_6_4  X_6_5  X_6_6  X_7_0  X_7_1  X_7_2  X_7_3  X_7_4  X_7_5 
 X_7_6  Z_0  Z_1  Z_2  Z_3  Z_4  Z_5  Z_6 
End
